pure_adt/isaplanner_prop_32.smt2
(set-logic HORN)
(declare-datatypes ((Nat_145 0)) (((Z_409 ) (S_145 (projS_140 Nat_145)))))
(declare-fun diseqNat_145 (Nat_145 Nat_145) Bool)
(declare-fun projS_141 (Nat_145 Nat_145) Bool)
(declare-fun isZ_145 (Nat_145) Bool)
(declare-fun isS_145 (Nat_145) Bool)
(assert (forall ((x_3959 Nat_145))
	(projS_141 x_3959 (S_145 x_3959))))
(assert (isZ_145 Z_409))
(assert (forall ((x_3961 Nat_145))
	(isS_145 (S_145 x_3961))))
(assert (forall ((x_3962 Nat_145))
	(diseqNat_145 Z_409 (S_145 x_3962))))
(assert (forall ((x_3963 Nat_145))
	(diseqNat_145 (S_145 x_3963) Z_409)))
(assert (forall ((x_3964 Nat_145) (x_3965 Nat_145))
	(=> (diseqNat_145 x_3964 x_3965)
	    (diseqNat_145 (S_145 x_3964) (S_145 x_3965)))))
(declare-fun min_3 (Nat_145 Nat_145 Nat_145) Bool)
(assert (forall ((x_3952 Nat_145) (y_324 Nat_145) (z_410 Nat_145))
	(=> (min_3 x_3952 z_410 y_324)
	    (min_3 (S_145 x_3952) (S_145 z_410) (S_145 y_324)))))
(assert (forall ((z_410 Nat_145))
	(min_3 Z_409 (S_145 z_410) Z_409)))
(assert (forall ((y_323 Nat_145))
	(min_3 Z_409 Z_409 y_323)))
(assert (forall ((x_3955 Nat_145) (x_3956 Nat_145) (a_8 Nat_145) (b_7 Nat_145))
	(=>	(and true
			(diseqNat_145 x_3955 x_3956)
			(min_3 x_3955 a_8 b_7)
			(min_3 x_3956 b_7 a_8))
		false)))
(check-sat)
